row=7;
column=7;
left=[0, 0, 16, 13, 8, 0, 23];
right=[0, 0, 12, 0, 13, 0, 11];
top=[7, 0, 0, 11, 15, 23, 10];
bottom=[19, 0, 12, 13, 0, 7, 0];
Board=[|0,0,6,0,0,0,0|0,0,2,3,0,4,0|0,6,0,1,0,2,0|0,0,0,0,3,0,0|0,7,4,0,0,0,6|0,0,0,0,0,6,0|0,3,0,0,0,0,0|]